SDVRP instances/custom_instances/p10_4_split0.vrp
NAME:p10_4_split
BEST_KNOWN: 0
COMMENT: 0
DIMENSION: 942
CAPACITY: 200
EDGE_WEIGHT_FORMAT: FUNCTION
EDGE_WEIGHT_TYPE: EXACT_2D
NODE_COORD_SECTION
1 0.00000 0.00000
2 -5 40
3 -5 40
4 -5 40
5 -5 40
6 -5 40
7 -5 40
8 41 -30
9 41 -30
10 41 -30
11 41 -30
12 41 -30
13 36 18
14 36 18
15 36 18
16 36 18
17 36 18
18 36 18
19 36 18
20 -21 -42
21 -21 -42
22 -21 -42
23 -21 -42
24 -21 -42
25 -21 -42
26 14 38
27 14 38
28 14 38
29 14 38
30 14 38
31 14 38
32 14 38
33 -1 -36
34 -1 -36
35 -1 -36
36 -1 -36
37 -10 -25
38 -10 -25
39 -10 -25
40 -10 -25
41 -10 -25
42 40 36
43 40 36
44 40 36
45 -8 9
46 -8 9
47 -8 9
48 -8 9
49 -8 9
50 -8 9
51 -34 -41
52 -34 -41
53 -34 -41
54 -34 -41
55 -34 -41
56 -34 -41
57 -34 -41
58 -20 -18
59 -20 -18
60 -20 -18
61 -20 -18
62 -20 -18
63 10 -35
64 10 -35
65 10 -35
66 10 -35
67 10 -35
68 -40 -18
69 -40 -18
70 -40 -18
71 -40 -18
72 -40 -18
73 -40 -18
74 -40 -18
75 -39 40
76 -39 40
77 -39 40
78 -39 40
79 16 33
80 16 33
81 16 33
82 16 33
83 16 33
84 16 33
85 16 33
86 45 -26
87 45 -26
88 45 -26
89 45 -26
90 -35 17
91 -35 17
92 27 -13
93 27 -13
94 27 -13
95 27 -13
96 27 -13
97 32 -34
98 2 0
99 2 0
100 2 0
101 7 -7
102 7 -7
103 7 -7
104 28 -11
105 28 -11
106 28 -11
107 28 -11
108 28 -11
109 28 -11
110 -11 -41
111 -11 -41
112 -11 -41
113 -11 -41
114 -11 -41
115 -11 -41
116 -11 -41
117 42 -2
118 42 -2
119 42 -2
120 42 -2
121 42 -2
122 47 -41
123 47 -41
124 47 -41
125 47 -41
126 47 -41
127 47 -41
128 31 43
129 31 43
130 31 43
131 -9 50
132 -9 50
133 -9 50
134 -9 50
135 -9 50
136 -37 36
137 -37 36
138 32 -29
139 32 -29
140 32 -29
141 32 -29
142 44 -25
143 44 -25
144 44 -25
145 38 -48
146 38 -48
147 38 -48
148 38 -48
149 38 -48
150 38 -48
151 -6 21
152 -6 21
153 -6 21
154 -6 21
155 -6 21
156 -6 21
157 -33 -32
158 -33 -32
159 -33 -32
160 -33 -32
161 40 -24
162 40 -24
163 40 -24
164 40 -24
165 40 -24
166 4 32
167 4 32
168 4 32
169 4 32
170 4 32
171 4 32
172 4 32
173 4 32
174 5 -21
175 5 -21
176 5 -21
177 5 -21
178 -49 -27
179 -49 -27
180 -49 -27
181 -49 -27
182 2 39
183 2 39
184 2 39
185 2 39
186 16 12
187 16 12
188 16 12
189 16 12
190 16 12
191 16 12
192 16 12
193 16 12
194 23 22
195 23 22
196 23 22
197 23 22
198 23 22
199 23 22
200 -35 18
201 -35 18
202 -35 18
203 -35 18
204 -45 24
205 -45 24
206 -45 24
207 -45 24
208 -19 -47
209 -19 -47
210 -49 0
211 -49 0
212 -49 0
213 -49 0
214 -49 0
215 -49 0
216 32 -16
217 32 -16
218 32 -16
219 32 -16
220 32 -16
221 32 -16
222 48 -44
223 48 -44
224 48 -44
225 48 -44
226 48 -44
227 30 42
228 30 42
229 30 42
230 30 42
231 30 42
232 33 7
233 33 7
234 33 7
235 33 7
236 33 7
237 33 7
238 33 7
239 -50 -38
240 -50 -38
241 -50 -38
242 -50 -38
243 -50 -38
244 -42 -21
245 -42 -21
246 -42 -21
247 -42 -21
248 -18 -5
249 -18 -5
250 -18 -5
251 -18 -5
252 38 -13
253 38 -13
254 38 -13
255 38 -13
256 -7 -37
257 -7 -37
258 -7 -37
259 -7 -37
260 -7 -37
261 -7 -37
262 -23 -38
263 -23 -38
264 -23 -38
265 -23 -38
266 -23 -38
267 30 35
268 30 35
269 30 35
270 -7 42
271 -7 42
272 -7 42
273 -7 42
274 -7 42
275 -7 42
276 36 32
277 36 32
278 36 32
279 36 32
280 36 32
281 36 32
282 -41 -4
283 -41 -4
284 -41 -4
285 -41 -4
286 -41 -4
287 -41 -4
288 -40 -28
289 -19 38
290 -19 38
291 -19 38
292 -43 -23
293 -43 -23
294 -43 -23
295 -43 -23
296 -43 -23
297 -29 19
298 -29 19
299 -29 19
300 -29 19
301 -29 19
302 -29 19
303 47 50
304 47 50
305 47 50
306 47 50
307 47 50
308 47 50
309 27 11
310 27 11
311 27 11
312 27 11
313 27 11
314 -8 -29
315 -8 -29
316 -8 -29
317 15 31
318 15 31
319 15 31
320 15 31
321 15 31
322 15 31
323 -29 -8
324 -29 -8
325 -29 -8
326 -29 -8
327 -29 -8
328 -29 -8
329 -29 -8
330 23 -21
331 23 -21
332 -24 9
333 -24 9
334 -24 9
335 -24 9
336 -24 9
337 -24 9
338 18 -29
339 18 -29
340 18 -29
341 18 -29
342 18 -29
343 18 -29
344 -1 -28
345 -1 -28
346 -1 -28
347 -1 -28
348 -1 -28
349 36 0
350 36 0
351 36 0
352 36 0
353 -22 33
354 -22 33
355 -22 33
356 -22 33
357 -22 33
358 -40 -9
359 -40 -9
360 -40 -9
361 24 34
362 24 34
363 24 34
364 24 34
365 24 34
366 7 36
367 7 36
368 7 36
369 44 -50
370 44 -50
371 44 -50
372 44 -50
373 44 -50
374 43 -47
375 43 -47
376 43 -47
377 -50 26
378 -50 26
379 -50 26
380 -50 26
381 -50 26
382 -46 24
383 -46 24
384 -46 24
385 38 -1
386 38 -1
387 38 -1
388 49 15
389 49 15
390 49 15
391 49 15
392 49 15
393 49 15
394 49 15
395 49 15
396 -29 29
397 -29 29
398 -29 29
399 -29 29
400 -29 29
401 -29 29
402 50 24
403 50 24
404 50 24
405 50 24
406 50 24
407 -42 -2
408 -42 -2
409 -42 -2
410 -42 -2
411 -28 8
412 -28 8
413 -28 8
414 38 27
415 38 27
416 38 27
417 38 27
418 38 27
419 38 27
420 38 27
421 15 49
422 15 49
423 15 49
424 15 49
425 15 49
426 -10 18
427 -10 18
428 -10 18
429 -10 18
430 -10 18
431 -10 18
432 -2 32
433 -2 32
434 -2 32
435 -2 32
436 -2 32
437 -2 32
438 10 5
439 10 5
440 10 5
441 10 5
442 10 5
443 -21 -31
444 -21 -31
445 -21 -31
446 -21 -31
447 -21 -31
448 41 -47
449 41 -47
450 41 -47
451 41 -47
452 18 -13
453 18 -13
454 18 -13
455 -12 -30
456 -12 -30
457 -12 -30
458 -12 -30
459 -12 -30
460 23 50
461 23 50
462 -37 -9
463 -37 -9
464 -37 -9
465 -6 45
466 -6 45
467 -6 45
468 -6 45
469 -6 45
470 -6 45
471 -6 45
472 -16 -10
473 -16 -10
474 -16 -10
475 -16 -10
476 -47 9
477 -47 9
478 -47 9
479 14 -25
480 14 -25
481 14 -25
482 14 -25
483 14 -25
484 14 -25
485 0 -27
486 0 -27
487 0 -27
488 0 -27
489 0 -27
490 0 -27
491 0 -27
492 0 -27
493 50 -29
494 50 -29
495 50 -29
496 50 -29
497 50 -29
498 50 -29
499 -23 9
500 -23 9
501 -23 9
502 -23 9
503 -23 9
504 -23 9
505 -5 28
506 -5 28
507 -5 28
508 -5 28
509 -5 28
510 -39 -23
511 -39 -23
512 -39 -23
513 -39 -23
514 -30 -8
515 -30 -8
516 -30 -8
517 -30 -8
518 -30 -8
519 -30 -8
520 40 -34
521 40 -34
522 14 -26
523 14 -26
524 14 -26
525 14 -26
526 14 -26
527 14 -26
528 12 8
529 12 8
530 8 -1
531 8 -1
532 8 -1
533 8 -1
534 -34 6
535 -34 6
536 -34 6
537 -34 6
538 -34 6
539 15 29
540 15 29
541 15 29
542 15 29
543 15 29
544 15 29
545 31 20
546 31 20
547 31 20
548 31 20
549 31 20
550 31 20
551 49 -4
552 49 -4
553 49 -4
554 49 -4
555 49 -4
556 20 -45
557 20 -45
558 20 -45
559 20 -45
560 20 -45
561 20 -45
562 20 -45
563 20 -45
564 -42 9
565 -42 9
566 -42 9
567 -42 9
568 -42 9
569 31 -47
570 31 -47
571 31 -47
572 31 -47
573 31 -47
574 -31 26
575 -31 26
576 -31 26
577 -31 26
578 -31 26
579 -31 26
580 -31 26
581 -31 26
582 -12 -36
583 -12 -36
584 -12 -36
585 -12 -36
586 38 23
587 38 23
588 38 23
589 17 46
590 17 46
591 17 46
592 17 46
593 17 46
594 -37 43
595 -37 43
596 -37 43
597 -37 43
598 -37 43
599 -37 43
600 -37 43
601 23 -16
602 23 -16
603 23 -16
604 23 -16
605 11 2
606 11 2
607 11 2
608 -21 37
609 -21 37
610 -21 37
611 36 -6
612 36 -6
613 36 -6
614 -23 -41
615 -23 -41
616 -23 -41
617 -23 -41
618 -23 -41
619 31 20
620 31 20
621 -14 -8
622 -14 -8
623 -14 -8
624 -14 -8
625 -14 -8
626 -14 -8
627 26 32
628 26 32
629 26 32
630 49 19
631 49 19
632 49 19
633 49 19
634 9 -19
635 9 -19
636 9 -19
637 9 -19
638 9 -19
639 9 -19
640 9 -19
641 9 -19
642 37 8
643 37 8
644 43 0
645 43 0
646 43 0
647 43 0
648 43 0
649 43 0
650 43 0
651 31 -7
652 31 -7
653 31 -7
654 31 -7
655 31 -7
656 31 -7
657 -43 48
658 -43 48
659 31 27
660 31 27
661 31 27
662 31 27
663 19 10
664 19 10
665 19 10
666 19 10
667 19 10
668 19 10
669 -38 47
670 -38 47
671 -38 47
672 -38 47
673 -2 43
674 -2 43
675 -2 43
676 -2 43
677 -2 43
678 -2 43
679 30 16
680 30 16
681 30 16
682 30 16
683 15 47
684 15 47
685 15 47
686 15 47
687 15 47
688 17 -2
689 17 -2
690 17 -2
691 31 41
692 31 41
693 31 41
694 -47 47
695 -47 47
696 -47 47
697 -47 47
698 -47 47
699 6 47
700 6 47
701 39 -28
702 39 -28
703 39 -28
704 39 -28
705 39 -28
706 -14 -44
707 -14 -44
708 -14 -44
709 -14 -44
710 -34 -35
711 -34 -35
712 -34 -35
713 -34 -35
714 -34 -35
715 -34 -35
716 -13 43
717 -13 43
718 -13 43
719 -13 43
720 -7 2
721 -7 2
722 -7 2
723 -7 2
724 -7 2
725 -22 10
726 -22 10
727 -22 10
728 18 -21
729 18 -21
730 18 -21
731 18 -21
732 18 -21
733 45 22
734 45 22
735 45 22
736 45 22
737 45 22
738 0 -21
739 0 -21
740 0 -21
741 0 -21
742 0 -21
743 39 10
744 39 10
745 39 10
746 39 10
747 39 10
748 -10 2
749 -10 2
750 -10 2
751 -10 2
752 -10 35
753 -10 35
754 -10 35
755 -10 35
756 -42 49
757 -42 49
758 -42 49
759 -42 49
760 -42 49
761 -44 -7
762 -44 -7
763 -44 -7
764 -44 -7
765 -41 -22
766 -41 -22
767 -41 -22
768 -41 -22
769 -41 -22
770 -41 -22
771 21 45
772 21 45
773 21 45
774 21 45
775 21 45
776 21 45
777 39 -21
778 39 -21
779 39 -21
780 39 -21
781 32 -5
782 32 -5
783 32 -5
784 32 -5
785 32 -5
786 6 -3
787 6 -3
788 6 -3
789 6 -3
790 6 -3
791 6 -3
792 6 -3
793 -16 41
794 -16 41
795 -16 41
796 -16 41
797 -16 41
798 8 36
799 8 36
800 -5 28
801 -5 28
802 -5 28
803 -5 28
804 -5 28
805 -5 28
806 -5 28
807 24 6
808 24 6
809 24 6
810 13 -28
811 13 -28
812 46 22
813 46 22
814 46 22
815 46 22
816 18 26
817 18 26
818 18 26
819 14 12
820 14 12
821 14 12
822 14 12
823 -6 39
824 -6 39
825 -6 39
826 -6 39
827 -37 -26
828 -37 -26
829 -37 -26
830 5 -28
831 5 -28
832 5 -28
833 5 -28
834 5 -28
835 5 -28
836 -3 33
837 -3 33
838 -3 33
839 -3 33
840 25 8
841 25 8
842 -21 -38
843 -21 -38
844 -21 -38
845 -21 -38
846 -21 -38
847 -21 -38
848 -21 -38
849 -21 -38
850 24 -47
851 24 -47
852 24 -47
853 24 -47
854 24 -47
855 24 -47
856 17 38
857 17 38
858 17 38
859 17 38
860 17 38
861 17 38
862 9 -7
863 9 -7
864 9 -7
865 9 -7
866 9 -7
867 47 -13
868 47 -13
869 47 -13
870 47 -13
871 47 -13
872 -10 -45
873 -10 -45
874 -10 -45
875 -10 -45
876 -10 -45
877 -10 -45
878 -10 -45
879 -25 -25
880 -25 -25
881 -25 -25
882 -25 -25
883 -25 -25
884 -25 -25
885 -25 -25
886 -25 -25
887 -45 -47
888 -45 -47
889 -45 -47
890 -45 -47
891 -43 -8
892 -43 -8
893 32 -35
894 32 -35
895 32 -35
896 32 -35
897 32 -35
898 14 -4
899 14 -4
900 14 -4
901 -38 14
902 -38 14
903 -38 14
904 -38 14
905 -38 14
906 -41 -37
907 -41 -37
908 -41 -37
909 -41 -37
910 -41 -37
911 -41 -37
912 3 20
913 3 20
914 3 20
915 3 20
916 3 20
917 27 33
918 27 33
919 27 33
920 -42 -44
921 -42 -44
922 -42 -44
923 -42 -44
924 -39 -46
925 -39 -46
926 -39 -46
927 -39 -46
928 -39 -46
929 -39 -46
930 -39 -46
931 -39 -46
932 35 36
933 35 36
934 35 36
935 -12 21
936 -12 21
937 -12 21
938 -12 21
939 -12 21
940 31 48
941 31 48
942 31 48
DEMAND_SECTION
1 0
2 40
3 10
4 2
5 2
6 2
7 1
8 40
9 20
10 10
11 2
12 2
13 40
14 40
15 10
16 2
17 2
18 2
19 2
20 20
21 10
22 2
23 2
24 2
25 1
26 40
27 40
28 2
29 2
30 2
31 2
32 1
33 40
34 20
35 10
36 2
37 40
38 2
39 2
40 2
41 1
42 40
43 20
44 10
45 20
46 10
47 2
48 2
49 2
50 1
51 40
52 40
53 2
54 2
55 2
56 2
57 1
58 40
59 20
60 2
61 2
62 2
63 20
64 10
65 2
66 2
67 1
68 40
69 10
70 2
71 2
72 2
73 2
74 1
75 40
76 20
77 10
78 1
79 40
80 10
81 2
82 2
83 2
84 2
85 1
86 20
87 2
88 2
89 2
90 40
91 40
92 40
93 40
94 2
95 2
96 2
97 40
98 40
99 20
100 10
101 40
102 40
103 10
104 40
105 20
106 2
107 2
108 2
109 2
110 40
111 20
112 2
113 2
114 2
115 2
116 1
117 40
118 20
119 10
120 2
121 1
122 40
123 20
124 10
125 2
126 2
127 2
128 40
129 20
130 2
131 40
132 20
133 10
134 2
135 1
136 20
137 10
138 40
139 20
140 10
141 1
142 40
143 40
144 1
145 40
146 40
147 10
148 2
149 2
150 2
151 20
152 10
153 2
154 2
155 2
156 1
157 40
158 40
159 2
160 1
161 20
162 10
163 2
164 2
165 2
166 40
167 40
168 10
169 2
170 2
171 2
172 2
173 1
174 40
175 10
176 2
177 1
178 40
179 40
180 2
181 2
182 40
183 20
184 10
185 2
186 40
187 40
188 10
189 2
190 2
191 2
192 2
193 1
194 40
195 40
196 2
197 2
198 2
199 2
200 40
201 20
202 10
203 2
204 40
205 20
206 2
207 2
208 40
209 10
210 20
211 10
212 2
213 2
214 2
215 2
216 40
217 40
218 10
219 2
220 2
221 2
222 40
223 2
224 2
225 2
226 1
227 40
228 20
229 10
230 2
231 1
232 40
233 10
234 2
235 2
236 2
237 2
238 1
239 40
240 2
241 2
242 2
243 2
244 20
245 10
246 2
247 2
248 40
249 20
250 2
251 2
252 40
253 40
254 2
255 2
256 40
257 20
258 2
259 2
260 2
261 1
262 20
263 10
264 2
265 2
266 2
267 40
268 40
269 20
270 40
271 2
272 2
273 2
274 2
275 1
276 40
277 20
278 2
279 2
280 2
281 1
282 20
283 10
284 2
285 2
286 2
287 1
288 40
289 20
290 10
291 2
292 40
293 2
294 2
295 2
296 1
297 40
298 2
299 2
300 2
301 2
302 1
303 40
304 40
305 2
306 2
307 2
308 2
309 40
310 20
311 10
312 2
313 1
314 20
315 10
316 2
317 20
318 2
319 2
320 2
321 2
322 1
323 40
324 40
325 10
326 2
327 2
328 2
329 2
330 40
331 10
332 20
333 2
334 2
335 2
336 2
337 1
338 20
339 10
340 2
341 2
342 2
343 1
344 40
345 2
346 2
347 2
348 1
349 40
350 2
351 2
352 2
353 40
354 10
355 2
356 2
357 1
358 40
359 2
360 1
361 40
362 40
363 10
364 2
365 1
366 20
367 10
368 1
369 20
370 2
371 2
372 2
373 1
374 40
375 20
376 1
377 40
378 40
379 10
380 2
381 1
382 40
383 20
384 2
385 20
386 10
387 2
388 40
389 40
390 10
391 2
392 2
393 2
394 2
395 1
396 20
397 10
398 2
399 2
400 2
401 2
402 40
403 40
404 2
405 2
406 2
407 40
408 2
409 2
410 1
411 20
412 10
413 1
414 40
415 40
416 2
417 2
418 2
419 2
420 1
421 40
422 20
423 2
424 2
425 2
426 20
427 2
428 2
429 2
430 2
431 1
432 40
433 2
434 2
435 2
436 2
437 1
438 40
439 20
440 2
441 2
442 1
443 20
444 2
445 2
446 2
447 1
448 20
449 2
450 2
451 1
452 20
453 10
454 2
455 40
456 20
457 2
458 2
459 2
460 40
461 20
462 40
463 40
464 20
465 40
466 20
467 2
468 2
469 2
470 2
471 1
472 40
473 20
474 2
475 1
476 40
477 2
478 2
479 40
480 40
481 10
482 2
483 2
484 1
485 40
486 40
487 10
488 2
489 2
490 2
491 2
492 1
493 40
494 20
495 10
496 2
497 2
498 2
499 20
500 10
501 2
502 2
503 2
504 2
505 40
506 40
507 10
508 2
509 2
510 20
511 2
512 2
513 2
514 40
515 10
516 2
517 2
518 2
519 1
520 40
521 20
522 40
523 10
524 2
525 2
526 2
527 1
528 40
529 20
530 20
531 10
532 2
533 2
534 40
535 20
536 2
537 2
538 1
539 40
540 40
541 2
542 2
543 2
544 2
545 40
546 40
547 2
548 2
549 2
550 2
551 40
552 10
553 2
554 2
555 2
556 40
557 20
558 10
559 2
560 2
561 2
562 2
563 1
564 40
565 10
566 2
567 2
568 2
569 40
570 2
571 2
572 2
573 2
574 40
575 20
576 10
577 2
578 2
579 2
580 2
581 1
582 20
583 2
584 2
585 2
586 40
587 40
588 10
589 40
590 20
591 10
592 2
593 2
594 40
595 40
596 2
597 2
598 2
599 2
600 1
601 40
602 10
603 2
604 2
605 40
606 2
607 2
608 40
609 2
610 2
611 20
612 10
613 1
614 40
615 40
616 10
617 2
618 1
619 40
620 1
621 40
622 2
623 2
624 2
625 2
626 1
627 20
628 10
629 2
630 40
631 40
632 2
633 2
634 40
635 40
636 10
637 2
638 2
639 2
640 2
641 1
642 40
643 20
644 40
645 20
646 2
647 2
648 2
649 2
650 1
651 40
652 20
653 2
654 2
655 2
656 1
657 40
658 20
659 40
660 40
661 2
662 1
663 40
664 40
665 10
666 2
667 2
668 1
669 40
670 40
671 2
672 2
673 40
674 20
675 2
676 2
677 2
678 1
679 20
680 10
681 2
682 2
683 40
684 20
685 10
686 2
687 2
688 40
689 20
690 2
691 40
692 40
693 20
694 40
695 40
696 2
697 2
698 2
699 40
700 20
701 40
702 10
703 2
704 2
705 2
706 20
707 10
708 2
709 2
710 40
711 40
712 2
713 2
714 2
715 2
716 40
717 40
718 2
719 1
720 40
721 2
722 2
723 2
724 2
725 40
726 40
727 1
728 40
729 2
730 2
731 2
732 1
733 20
734 2
735 2
736 2
737 1
738 40
739 20
740 2
741 2
742 2
743 40
744 10
745 2
746 2
747 2
748 40
749 20
750 10
751 2
752 20
753 2
754 2
755 2
756 40
757 20
758 10
759 2
760 1
761 40
762 40
763 10
764 1
765 40
766 2
767 2
768 2
769 2
770 1
771 40
772 2
773 2
774 2
775 2
776 1
777 40
778 10
779 2
780 1
781 40
782 10
783 2
784 2
785 1
786 20
787 10
788 2
789 2
790 2
791 2
792 1
793 40
794 40
795 10
796 2
797 2
798 20
799 10
800 20
801 10
802 2
803 2
804 2
805 2
806 1
807 40
808 40
809 20
810 40
811 10
812 40
813 20
814 2
815 1
816 40
817 20
818 2
819 40
820 40
821 10
822 2
823 20
824 2
825 2
826 2
827 20
828 10
829 2
830 40
831 2
832 2
833 2
834 2
835 1
836 40
837 20
838 2
839 2
840 40
841 40
842 40
843 40
844 10
845 2
846 2
847 2
848 2
849 1
850 40
851 2
852 2
853 2
854 2
855 1
856 40
857 20
858 2
859 2
860 2
861 2
862 40
863 40
864 10
865 2
866 2
867 40
868 2
869 2
870 2
871 2
872 40
873 40
874 10
875 2
876 2
877 2
878 2
879 40
880 20
881 10
882 2
883 2
884 2
885 2
886 1
887 40
888 40
889 2
890 1
891 20
892 10
893 40
894 2
895 2
896 2
897 2
898 40
899 10
900 2
901 20
902 2
903 2
904 2
905 1
906 20
907 10
908 2
909 2
910 2
911 2
912 40
913 10
914 2
915 2
916 1
917 40
918 20
919 1
920 40
921 40
922 10
923 1
924 40
925 20
926 10
927 2
928 2
929 2
930 2
931 1
932 40
933 40
934 20
935 40
936 20
937 2
938 2
939 2
940 40
941 40
942 10
DEPOT_SECTION
1
-1
EOF