SDVRP instances/custom_instances/p10_4_split0.sol
941 -25 28 30 26 27 31 29 856 857 855 78 80 321 540 542 541 -36 38 456 458 457 455 454 315 314 313 737 738 -37 40 39 584 582 583 581 111 114 109 110 115 113 112 873 872 874 876 871 875 877 -49 45 46 47 48 44 425 426 429 430 428 427 507 505 801 504 799 508 805 800 804 506 803 802 -52 51 55 50 56 54 53 927 929 923 925 928 920 922 921 712 714 -57 61 60 159 158 157 156 879 880 878 885 883 -59 58 263 264 261 265 262 616 614 617 845 846 848 847 843 841 842 844 -65 64 63 62 66 809 810 525 523 526 521 524 483 480 482 729 728 731 727 730 -86 88 87 85 495 496 492 494 497 493 142 143 141 779 778 777 -90 89 900 902 535 533 536 534 537 411 410 412 722 -95 93 94 91 92 603 602 601 600 330 329 102 -98 97 531 529 688 689 687 898 899 897 -99 604 606 605 807 808 840 839 -101 100 862 863 865 864 861 785 790 791 -104 105 108 106 107 103 651 652 655 653 654 650 784 783 780 781 532 530 -137 140 138 139 96 893 892 896 895 894 337 522 -144 149 145 370 371 369 372 368 375 373 374 448 449 450 447 -146 147 148 223 224 221 225 222 123 126 122 125 124 121 520 519 -153 150 151 154 152 155 835 836 837 838 434 431 911 912 913 915 914 -163 161 162 160 164 9 8 11 10 7 703 702 704 700 701 451 452 453 -168 170 165 171 167 172 169 166 182 184 183 367 366 365 798 797 -173 175 174 176 484 486 490 488 485 491 489 487 347 343 344 346 345 -181 676 672 675 673 674 677 6 1 3 4 2 5 823 825 824 822 435 432 -187 191 188 189 190 186 185 192 820 818 819 821 -193 194 815 538 539 -195 196 198 197 659 658 416 414 415 419 418 413 417 549 438 -206 204 205 203 377 378 376 380 379 382 498 500 -229 227 230 226 228 128 127 129 690 626 628 -234 235 233 232 231 642 641 745 744 742 806 -237 236 743 746 389 387 390 391 394 393 392 388 632 630 629 631 -242 239 238 241 240 889 887 886 888 919 924 930 926 -250 248 247 249 474 472 473 471 621 622 623 625 624 620 -251 252 253 254 215 220 219 216 218 217 786 789 787 788 -260 256 255 259 257 258 35 32 34 33 833 832 829 834 831 830 740 741 739 -268 267 266 933 931 932 -283 281 286 760 762 761 763 891 890 358 359 357 516 517 518 -285 282 284 407 408 409 406 211 209 213 210 214 212 476 475 477 565 567 564 563 566 -299 296 297 301 298 300 200 199 201 202 574 573 575 577 579 580 576 578 -302 307 303 306 304 305 941 939 940 817 816 -311 308 312 310 309 618 619 545 544 548 547 546 -318 320 317 319 83 84 860 858 859 770 774 771 775 772 773 460 459 589 591 590 588 592 -327 325 328 323 322 324 326 514 513 515 719 721 720 723 -336 335 901 903 904 381 383 693 694 697 696 695 656 657 -339 340 342 341 338 570 568 569 572 571 849 851 850 854 852 853 562 557 559 560 556 558 555 561 -349 385 386 384 644 645 643 648 649 647 646 117 116 119 611 610 612 782 -351 348 350 118 120 552 554 553 551 550 868 866 867 870 869 776 -352 354 356 355 353 609 608 607 288 290 289 937 936 935 934 938 -395 399 595 596 598 759 757 755 756 758 671 669 668 670 -396 397 400 398 135 136 74 77 75 76 594 593 597 599 -436 433 470 468 469 464 466 465 467 132 130 134 133 131 272 269 270 273 271 274 754 752 -441 439 440 437 664 662 665 667 663 666 528 527 -443 446 442 445 444 613 615 24 21 22 19 23 20 207 208 705 708 707 706 -463 462 461 68 67 73 70 69 72 71 246 245 244 243 769 766 510 512 -479 478 481 634 633 635 636 639 637 638 640 -511 509 177 178 179 180 295 292 293 291 294 765 764 767 768 -543 316 81 79 82 362 363 361 364 360 917 918 916 627 -587 586 585 16 17 12 14 13 15 18 679 680 -661 660 278 280 277 279 275 276 42 41 43 691 692 -678 681 735 732 733 736 734 405 401 403 404 402 811 814 813 812 -684 685 686 682 683 422 420 423 421 424 699 698 -724 726 725 331 334 333 332 502 499 503 501 747 748 749 750 -751 753 717 716 715 718 795 792 793 794 796 -827 828 826 287 907 908 910 906 905 909 709 711 710 713 881 884 882 0 





OBJ=
5787.492
BEST_KNOWN=
0.000